c uprop, v00.0, 
c reading from data/prog911.c.cnf
c done reading: 0.004767
p cnf 126 556
-72 -74 0
72 74 0
-76 -82 0
76 82 0
-86 -89 0
86 89 0
-79 -91 0
79 91 0
-94 -96 0
94 96 0
72 -98 0
-72 98 0
-72 -76 83 0
-76 83 0
-72 83 0
72 76 -83 0
76 -83 -100 0
72 -83 -100 0
-76 83 100 0
-72 83 100 0
83 100 0
-72 -76 100 0
68 -76 -86 0
68 -83 -86 0
68 -76 -83 0
-68 76 86 0
-68 83 86 0
-68 76 83 0
-67 -68 86 0
-67 -68 76 0
-67 -68 83 0
67 68 -86 0
67 68 -76 0
67 68 -83 0
67 -76 -83 -86 0
-67 76 83 86 0
64 -86 -91 0
64 -68 -91 0
64 -68 -86 0
-64 86 91 0
-64 68 91 0
-64 68 86 0
-63 -64 91 0
-63 -64 86 0
-63 -64 68 0
63 64 -91 0
63 64 -86 0
63 64 -68 0
63 -68 -86 -91 0
-63 68 86 91 0
61 -91 -96 0
61 -64 -96 0
61 -64 -91 0
-61 91 96 0
-61 64 96 0
-61 64 91 0
-60 -61 96 0
-60 -61 91 0
-60 -61 64 0
60 61 -96 0
60 61 -91 0
60 61 -64 0
60 -64 -91 -96 0
-60 64 91 96 0
-59 96 0
-59 61 0
59 -61 -96 0
-61 -70 -96 0
61 -70 96 0
61 70 -96 0
-61 70 96 0
-92 98 0
92 -98 0
-56 100 0
56 -100 0
-67 -72 80 0
-67 80 0
-72 80 0
67 72 -80 0
-55 67 -80 0
-55 72 -80 0
55 -67 80 0
55 -72 80 0
55 80 0
55 -67 -72 0
-63 -76 87 0
-63 -80 87 0
-76 -80 87 0
63 76 -87 0
63 80 -87 0
76 80 -87 0
-54 63 -87 0
-54 76 -87 0
-54 80 -87 0
54 -63 87 0
54 -76 87 0
54 -80 87 0
54 -63 -76 -80 0
-54 63 76 80 0
-60 77 -86 0
-60 77 -87 0
77 -86 -87 0
60 -77 86 0
60 -77 87 0
-77 86 87 0
-53 60 -77 0
-53 -77 86 0
-53 -77 87 0
53 -60 77 0
53 77 -86 0
53 77 -87 0
53 -60 -86 -87 0
-53 60 86 87 0
-70 -91 101 0
-70 -77 101 0
-77 -91 101 0
70 91 -101 0
70 77 -101 0
77 91 -101 0
70 -101 -102 0
91 -101 -102 0
77 -101 -102 0
-70 101 102 0
-91 101 102 0
-77 101 102 0
-70 -77 -91 102 0
70 77 91 -102 0
-59 -96 103 0
-59 -101 103 0
-96 -101 103 0
59 96 -103 0
59 101 -103 0
96 101 -103 0
59 -103 -104 0
96 -103 -104 0
101 -103 -104 0
-59 103 104 0
-96 103 104 0
-101 103 104 0
-59 -96 -101 104 0
59 96 101 -104 0
92 -105 0
-92 105 0
-92 -106 0
92 106 0
-56 107 0
-56 -105 107 0
-105 107 0
56 105 -107 0
56 -107 -108 0
105 -107 -108 0
-56 107 108 0
107 108 0
-105 107 108 0
-56 -105 108 0
-55 109 0
-55 -107 109 0
-107 109 0
55 107 -109 0
55 -109 -110 0
107 -109 -110 0
-55 109 110 0
109 110 0
-107 109 110 0
-55 -107 110 0
-54 -72 111 0
-54 -109 111 0
-72 -109 111 0
54 72 -111 0
54 109 -111 0
72 109 -111 0
54 -111 -112 0
72 -111 -112 0
109 -111 -112 0
-54 111 112 0
-72 111 112 0
-109 111 112 0
-54 -72 -109 112 0
54 72 109 -112 0
-53 -76 113 0
-53 -111 113 0
-76 -111 113 0
53 76 -113 0
53 111 -113 0
76 111 -113 0
53 -113 -114 0
76 -113 -114 0
111 -113 -114 0
-53 113 114 0
-76 113 114 0
-111 113 114 0
-53 -76 -111 114 0
53 76 111 -114 0
-86 -102 115 0
-102 -113 115 0
-86 -113 115 0
86 102 -115 0
102 113 -115 0
86 113 -115 0
102 -115 -116 0
86 -115 -116 0
113 -115 -116 0
-102 115 116 0
-86 115 116 0
-113 115 116 0
-86 -102 -113 116 0
86 102 113 -116 0
-91 -104 117 0
-104 -115 117 0
-91 -115 117 0
91 104 -117 0
104 115 -117 0
91 115 -117 0
104 -117 -118 0
91 -117 -118 0
115 -117 -118 0
-104 117 118 0
-91 117 118 0
-115 117 118 0
-91 -104 -115 118 0
91 104 115 -118 0
-96 -103 119 0
-103 -117 119 0
-96 -117 119 0
96 103 -119 0
103 117 -119 0
96 117 -119 0
103 -119 -120 0
96 -119 -120 0
117 -119 -120 0
-103 119 120 0
-96 119 120 0
-117 119 120 0
-96 -103 -117 120 0
96 103 117 -120 0
-106 -121 0
106 121 0
-108 -122 0
108 122 0
-110 -123 0
110 123 0
-112 -124 0
112 124 0
-114 -125 0
114 125 0
-116 -126 0
116 126 0
-84 -118 0
84 118 0
-69 -120 0
69 120 0
-65 -119 0
65 119 0
-52 -58 0
-51 -52 0
51 52 58 0
-49 51 58 0
-49 -51 -58 0
49 51 -58 0
49 -51 58 0
-48 52 0
-47 -48 0
47 48 -52 0
-45 47 -52 0
-45 -47 52 0
45 47 52 0
45 -47 -52 0
-44 48 0
-43 -44 0
43 44 -48 0
-41 43 -48 0
-41 -43 48 0
41 43 48 0
41 -43 -48 0
-40 44 0
-39 -40 0
39 40 -44 0
-37 39 -44 0
-37 -39 44 0
37 39 44 0
37 -39 -44 0
-36 40 0
-35 -36 0
35 36 -40 0
-33 35 -40 0
-33 -35 40 0
33 35 40 0
33 -35 -40 0
-32 36 0
-31 -32 0
31 32 -36 0
-29 31 -36 0
-29 -31 36 0
29 31 36 0
29 -31 -36 0
-28 32 0
-27 -28 0
27 28 -32 0
-25 27 -32 0
-25 -27 32 0
25 27 32 0
25 -27 -32 0
47 -71 0
58 -71 0
-47 -58 71 0
-47 -58 -75 0
47 58 -75 0
-47 58 75 0
47 -58 75 0
-43 -51 85 0
-43 -71 85 0
-51 -71 85 0
43 51 -85 0
43 71 -85 0
51 71 -85 0
43 -85 -90 0
51 -85 -90 0
71 -85 -90 0
-43 85 90 0
-51 85 90 0
-71 85 90 0
-43 -51 -71 90 0
43 51 71 -90 0
-39 -47 95 0
-39 -85 95 0
-47 -85 95 0
39 47 -95 0
39 85 -95 0
47 85 -95 0
39 -57 -95 0
47 -57 -95 0
-57 85 -95 0
-39 57 95 0
-47 57 95 0
57 -85 95 0
-39 -47 57 -85 0
39 47 -57 85 0
-35 -43 50 0
-35 50 -95 0
-43 50 -95 0
35 43 -50 0
35 -50 95 0
43 -50 95 0
35 -46 -50 0
43 -46 -50 0
-46 -50 95 0
-35 46 50 0
-43 46 50 0
46 50 -95 0
-35 -43 46 -95 0
35 43 -46 95 0
-31 -39 42 0
-31 42 -50 0
-39 42 -50 0
31 39 -42 0
31 -42 50 0
39 -42 50 0
31 -38 -42 0
-38 39 -42 0
-38 -42 50 0
-31 38 42 0
38 -39 42 0
38 42 -50 0
-31 38 -39 -50 0
31 -38 39 50 0
-27 34 -35 0
-27 34 -42 0
34 -35 -42 0
27 -34 35 0
27 -34 42 0
-34 35 42 0
27 -30 -34 0
-30 -34 35 0
-30 -34 42 0
-27 30 34 0
30 34 -35 0
30 34 -42 0
-27 30 -35 -42 0
27 -30 35 42 0
-26 31 0
-26 34 0
26 -31 -34 0
-24 -31 -34 0
-24 31 34 0
24 -31 34 0
24 31 -34 0
-23 27 0
-23 26 0
23 -26 -27 0
-22 -26 -27 0
-22 26 27 0
22 26 -27 0
22 -26 27 0
-21 -58 0
-21 -51 0
21 51 58 0
-20 51 58 0
-20 -51 -58 0
20 51 -58 0
20 -51 58 0
-19 21 0
-19 -75 0
19 -21 75 0
-18 -21 75 0
-18 21 -75 0
18 21 75 0
18 -21 -75 0
-17 19 0
-17 -90 0
17 -19 90 0
-16 -19 90 0
-16 19 -90 0
16 19 90 0
16 -19 -90 0
-15 17 0
-15 -57 0
15 -17 57 0
-14 -17 57 0
-14 17 -57 0
14 17 57 0
14 -17 -57 0
-13 15 0
-13 -46 0
13 -15 46 0
-12 -15 46 0
-12 15 -46 0
12 15 46 0
12 -15 -46 0
-11 13 0
-11 -38 0
11 -13 38 0
-10 -13 38 0
-10 13 -38 0
10 13 38 0
10 -13 -38 0
-9 11 0
-9 -30 0
9 -11 30 0
-8 -11 30 0
-8 11 -30 0
8 11 30 0
8 -11 -30 0
-7 9 0
-7 -24 0
7 -9 24 0
-6 -9 24 0
-6 9 -24 0
6 9 24 0
6 -9 -24 0
-5 7 0
-5 -22 0
5 -7 22 0
-4 -7 22 0
-4 7 -22 0
4 7 22 0
4 -7 -22 0
5 -73 0
-23 -73 0
-5 23 73 0
-3 -5 23 0
-3 5 -23 0
3 5 23 0
3 -5 -23 0
-81 106 0
58 -81 0
-58 81 -106 0
58 -106 0
-58 106 0
-51 88 -108 0
-81 88 -108 0
-51 -81 88 0
51 -88 108 0
81 -88 108 0
51 81 -88 0
-88 108 0
51 -88 0
81 -88 0
51 81 108 0
-75 78 -110 0
78 -88 -110 0
-75 78 -88 0
75 -78 110 0
-78 88 110 0
75 -78 88 0
78 -110 0
-75 78 0
78 -88 0
-75 -88 -110 0
-90 93 -112 0
-78 93 -112 0
-78 -90 93 0
90 -93 112 0
78 -93 112 0
78 90 -93 0
93 -112 0
-90 93 0
-78 93 0
-78 -90 -112 0
2 -57 -114 0
2 -93 -114 0
2 -57 -93 0
-2 57 114 0
-2 93 114 0
-2 57 93 0
2 -114 0
2 -57 0
2 -93 0
-57 -93 -114 0
1 -46 -116 0
1 -2 -116 0
1 -2 -46 0
-1 46 116 0
-1 2 116 0
-1 2 46 0
1 -116 0
1 -46 0
1 -2 0
-2 -46 -116 0
-38 97 -118 0
-1 97 -118 0
-1 -38 97 0
38 -97 118 0
1 -97 118 0
1 38 -97 0
97 -118 0
-38 97 0
-1 97 0
-1 -38 -118 0
-30 99 -120 0
-97 99 -120 0
-30 -97 99 0
30 -99 120 0
97 -99 120 0
30 97 -99 0
99 -120 0
-30 99 0
-97 99 0
-30 -97 -120 0
-24 66 -119 0
66 -99 -119 0
-24 66 -99 0
24 -66 119 0
-66 99 119 0
24 -66 99 0
66 -119 0
-24 66 0
66 -99 0
-24 -99 -119 0
22 -62 0
-62 66 0
-22 62 -66 0
-22 66 0
22 -66 0
-23 -62 0
-23 62 0
23 -62 0
